11
101
0
15
158
21
35
30
108
13
62
11
23
0
13
38
97
19
71
14
59
76
35
41
60
59
145
26
197
23
0
103
75
99
14
44
36
37
0
26
0
114
110
85
43
46
0
118
34
19
0
18
0
50
42
78
87
26
47
18
16
159
47
9
124
42
113
66
0
31
42
42
80
24
71
34
72
176
0
79
102
23
19
42
60
116
47
0
14
35
42
10
29
38
21
40
0
123
0
0
